<?xml version = "1.0" standalone="yes"?>
<!-- This file has been generated by DOcplex version 2.23.222  -->
<CPLEXSolution version="1.0">
 <header
   problemName="CVRP"
   objectiveValue="10565.8"
  />
 <variables>
  <variable name="x_0_3" index="2" value="1.00000"/>
  <variable name="x_0_4" index="3" value="1.00000"/>
  <variable name="x_0_5" index="4" value="1.00000"/>
  <variable name="x_0_7" index="6" value="1.00000"/>
  <variable name="x_0_9" index="8" value="1.00000"/>
  <variable name="x_0_10" index="9" value="1.00000"/>
  <variable name="x_0_12" index="11" value="1.00000"/>
  <variable name="x_0_14" index="13" value="1.00000"/>
  <variable name="x_0_15" index="14" value="1.00000"/>
  <variable name="x_1_0" index="17" value="1.00000"/>
  <variable name="x_2_8" index="41" value="1.00000"/>
  <variable name="x_3_16" index="66" value="1.00000"/>
  <variable name="x_4_2" index="70" value="1.00000"/>
  <variable name="x_5_6" index="90" value="1.00000"/>
  <variable name="x_6_0" index="102" value="1.00000"/>
  <variable name="x_7_11" index="129" value="1.00000"/>
  <variable name="x_8_0" index="136" value="1.00000"/>
  <variable name="x_9_13" index="165" value="1.00000"/>
  <variable name="x_10_0" index="170" value="1.00000"/>
  <variable name="x_11_0" index="187" value="1.00000"/>
  <variable name="x_12_1" index="205" value="1.00000"/>
  <variable name="x_13_0" index="221" value="1.00000"/>
  <variable name="x_14_17" index="254" value="1.00000"/>
  <variable name="x_15_0" index="255" value="1.00000"/>
  <variable name="x_16_0" index="272" value="1.00000"/>
  <variable name="x_17_0" index="289" value="1.00000"/>
  <variable name="u_1" index="306" value="60.00000"/>
  <variable name="u_2" index="307" value="33.00000"/>
  <variable name="u_3" index="308" value="21.00000"/>
  <variable name="u_4" index="309" value="17.00000"/>
  <variable name="u_5" index="310" value="19.00000"/>
  <variable name="u_6" index="311" value="67.00000"/>
  <variable name="u_7" index="312" value="45.00000"/>
  <variable name="u_8" index="313" value="63.00000"/>
  <variable name="u_9" index="314" value="14.00000"/>
  <variable name="u_10" index="315" value="61.00000"/>
  <variable name="u_11" index="316" value="65.00000"/>
  <variable name="u_12" index="317" value="45.00000"/>
  <variable name="u_13" index="318" value="70.00000"/>
  <variable name="u_14" index="319" value="11.00000"/>
  <variable name="u_15" index="320" value="71.00000"/>
  <variable name="u_16" index="321" value="55.00000"/>
  <variable name="u_17" index="322" value="69.00000"/>
 </variables>
</CPLEXSolution>
